
n_res = 4;
rcap = [38, 39, 526, 540];
rtype = [1, 1, 2, 2];
n_tasks = 100;
modes =  [{1, 2, 3}, {4, 5, 6}, {7, 8, 9}, {10, 11, 12}, {13, 14, 15}, {16, 17, 18}, {19, 20, 21}, {22, 23, 24}, {25, 26, 27}, {28, 29, 30}, {31, 32, 33}, {34, 35, 36}, {37, 38, 39}, {40, 41, 42}, {43, 44, 45}, {46, 47, 48}, {49, 50, 51}, {52, 53, 54}, {55, 56, 57}, {58, 59, 60}, {61, 62, 63}, {64, 65, 66}, {67, 68, 69}, {70, 71, 72}, {73, 74, 75}, {76, 77, 78}, {79, 80, 81}, {82, 83, 84}, {85, 86, 87}, {88, 89, 90}, {91, 92, 93}, {94, 95, 96}, {97, 98, 99}, {100, 101, 102}, {103, 104, 105}, {106, 107, 108}, {109, 110, 111}, {112, 113, 114}, {115, 116, 117}, {118, 119, 120}, {121, 122, 123}, {124, 125, 126}, {127, 128, 129}, {130, 131, 132}, {133, 134, 135}, {136, 137, 138}, {139, 140, 141}, {142, 143, 144}, {145, 146, 147}, {148, 149, 150}, {151, 152, 153}, {154, 155, 156}, {157, 158, 159}, {160, 161, 162}, {163, 164, 165}, {166, 167, 168}, {169, 170, 171}, {172, 173, 174}, {175, 176, 177}, {178, 179, 180}, {181, 182, 183}, {184, 185, 186}, {187, 188, 189}, {190, 191, 192}, {193, 194, 195}, {196, 197, 198}, {199, 200, 201}, {202, 203, 204}, {205, 206, 207}, {208, 209, 210}, {211, 212, 213}, {214, 215, 216}, {217, 218, 219}, {220, 221, 222}, {223, 224, 225}, {226, 227, 228}, {229, 230, 231}, {232, 233, 234}, {235, 236, 237}, {238, 239, 240}, {241, 242, 243}, {244, 245, 246}, {247, 248, 249}, {250, 251, 252}, {253, 254, 255}, {256, 257, 258}, {259, 260, 261}, {262, 263, 264}, {265, 266, 267}, {268, 269, 270}, {271, 272, 273}, {274, 275, 276}, {277, 278, 279}, {280, 281, 282}, {283, 284, 285}, {286, 287, 288}, {289, 290, 291}, {292, 293, 294}, {295, 296, 297}, {298, 299, 300}];
succ =  [{52, 43, 36, 33, 32, 28, 26, 25, 24, 23, 18, 17}, {50, 47, 41, 35, 33, 27, 20, 18, 17}, {50, 47, 40, 33, 30, 27, 20, 17}, {52, 35, 33, 30, 24, 20, 18}, {65, 47, 46, 38, 37, 35, 33, 26, 25}, {52, 47, 46, 45, 37, 33, 31, 17}, {52, 47, 26, 20, 18}, {52, 47, 35, 20, 17}, {50, 47, 46, 45, 39, 35, 33, 24}, {52, 46, 37, 26, 17}, {46, 45, 33, 32, 17}, {65, 62, 60, 52, 49, 48, 47, 46, 44, 41, 38, 33, 26}, {46, 45, 44, 18}, {62, 60, 57, 53, 52, 50, 48, 47, 46, 41, 32, 27}, {65, 56, 50, 49, 46, 45, 44, 39, 37, 33}, {65, 59, 58, 57, 49, 48, 46, 45, 44, 38, 37}, {100, 76, 68, 65, 62, 60, 53, 49, 44, 42, 39, 38}, {76, 68, 65, 49, 42, 39, 38, 37}, {71, 68, 66, 65, 62, 52, 46, 44, 42, 39, 38}, {66, 65, 64, 59, 58, 57, 55, 51, 46, 45, 44, 37}, {66, 57, 56, 51, 45, 43, 37, 36}, {73, 62, 53, 50, 49, 46, 45, 44, 41, 38}, {77, 73, 71, 68, 62, 58, 55, 54, 53, 49, 48, 47, 46, 41}, {100, 77, 76, 73, 71, 66, 65, 62, 60, 53, 44, 42, 38}, {100, 76, 68, 66, 62, 58, 56, 44, 39}, {76, 73, 72, 66, 64, 55, 54, 45, 42}, {76, 73, 69, 66, 64, 59, 45, 44}, {100, 99, 82, 80, 76, 73, 72, 70, 69, 68, 64, 63, 61, 59, 58, 56, 54}, {100, 99, 80, 73, 72, 71, 70, 63, 61, 56, 55, 54, 47}, {100, 99, 97, 82, 77, 72, 64, 62, 58, 54, 49, 46}, {99, 77, 76, 75, 68, 65, 64, 56, 55, 42}, {99, 77, 76, 73, 72, 71, 64, 63, 58, 51, 49}, {100, 77, 76, 73, 66, 64, 54, 42}, {76, 73, 66, 65, 64, 59, 42}, {99, 97, 77, 76, 75, 72, 69, 67, 64, 63, 62, 56, 49}, {80, 76, 73, 72, 70, 69, 68, 67, 65, 64, 63, 61, 59}, {100, 99, 81, 77, 74, 73, 71, 70, 62, 60, 54, 53}, {99, 75, 64, 63, 61, 56, 55, 54, 51}, {80, 79, 77, 73, 70, 59, 57, 54, 48}, {99, 95, 82, 79, 77, 76, 75, 74, 65, 59, 51}, {99, 98, 95, 82, 75, 63, 56, 51}, {82, 63, 61, 58, 51}, {97, 81, 80, 73, 72, 69, 63, 58, 54}, {99, 97, 93, 82, 75, 72, 70, 61, 54}, {100, 95, 91, 89, 87, 82, 81, 80, 79, 74, 71, 68}, {96, 93, 80, 78, 76, 70, 69, 67, 63}, {97, 96, 95, 94, 91, 76, 75, 74, 67, 59}, {98, 97, 96, 95, 92, 91, 82, 81, 78, 74, 64}, {93, 89, 81, 78, 74, 66, 61}, {97, 96, 95, 91, 87, 82, 79, 78, 76, 67}, {97, 96, 93, 81, 80, 78, 70, 69}, {97, 95, 93, 92, 91, 90, 89, 88, 87, 76, 70}, {87, 82, 80, 78, 69, 67}, {96, 95, 94, 87, 86, 85, 78, 67}, {93, 92, 90, 88, 87, 82, 78, 69}, {93, 92, 91, 89, 88, 87, 83, 79, 74}, {99, 94, 90, 82, 78, 69}, {94, 86, 85, 78, 67}, {93, 92, 89, 88, 87, 85, 84, 81, 78}, {97, 96, 95, 93, 91, 89, 88, 86, 75}, {96, 95, 91, 90, 87, 84, 83, 79}, {94, 92, 90, 89, 88, 85, 84, 78}, {91, 87, 83, 79, 74}, {93, 90, 89, 88, 87, 86, 85}, {97, 94, 87, 86, 85, 84, 83}, {94, 87, 84, 80, 79}, {98, 92, 90, 89, 88, 84}, {97, 92, 90, 85, 78}, {91, 89, 85, 84, 83}, {94, 86, 85, 84, 83}, {96, 93, 86, 84, 83}, {95, 91, 87, 85}, {95, 75}, {85, 84}, {87, 83}, {85, 83}, {88, 84}, {83}, {86}, {88}, {90}, {86}, {}, {}, {}, {}, {}, {}, {}, {}, {}, {}, {}, {}, {}, {}, {}, {}, {}, {}];
n_opt = 300;
dur = [3, 6, 9, 1, 7, 8, 3, 5, 6, 5, 6, 8, 1, 7, 10, 1, 8, 9, 6, 9, 10, 3, 7, 10, 4, 8, 9, 3, 7, 9, 1, 3, 8, 1, 4, 6, 3, 4, 6, 2, 6, 8, 5, 6, 7, 4, 5, 7, 4, 6, 9, 1, 5, 7, 6, 8, 10, 3, 5, 6, 1, 4, 7, 1, 2, 6, 5, 7, 8, 3, 8, 10, 1, 2, 10, 3, 4, 9, 1, 6, 9, 1, 7, 8, 6, 7, 8, 1, 7, 8, 3, 4, 5, 3, 4, 10, 4, 5, 7, 1, 9, 10, 2, 7, 9, 4, 5, 6, 2, 5, 10, 1, 6, 10, 6, 7, 8, 4, 7, 10, 5, 6, 7, 3, 5, 8, 1, 8, 10, 8, 9, 10, 7, 8, 10, 1, 2, 5, 1, 2, 7, 2, 5, 6, 3, 4, 10, 3, 8, 9, 1, 5, 10, 3, 4, 6, 2, 4, 5, 3, 5, 6, 5, 9, 10, 2, 3, 4, 2, 3, 10, 4, 5, 10, 4, 8, 10, 1, 8, 10, 1, 5, 8, 6, 7, 9, 1, 4, 10, 3, 4, 7, 2, 4, 6, 1, 4, 10, 2, 8, 10, 1, 2, 4, 1, 4, 9, 7, 8, 9, 1, 4, 5, 6, 8, 9, 2, 3, 4, 1, 3, 7, 4, 5, 6, 3, 6, 10, 2, 5, 8, 5, 6, 7, 4, 9, 10, 2, 3, 5, 3, 5, 7, 3, 4, 5, 3, 9, 10, 6, 7, 8, 7, 8, 9, 5, 8, 9, 1, 3, 6, 8, 9, 10, 2, 6, 7, 1, 2, 7, 1, 2, 9, 2, 3, 6, 4, 5, 6, 2, 3, 6, 1, 4, 8, 2, 3, 4, 1, 4, 6, 7, 9, 10, 4, 5, 9, 4, 8, 9];
rreq = [|4, 4, 4, 4, 4, 2, 2, 1, 1, 3, 2, 1, 4, 4, 4, 3, 3, 3, 3, 3, 2, 4, 3, 3, 5, 3, 3, 5, 2, 1, 2, 2, 2, 2, 2, 2, 4, 4, 4, 5, 4, 4, 4, 3, 2, 2, 2, 2, 4, 3, 2, 5, 4, 3, 3, 3, 3, 3, 2, 2, 3, 3, 1, 3, 3, 2, 2, 2, 2, 5, 3, 2, 4, 4, 4, 3, 3, 2, 4, 4, 4, 3, 3, 3, 4, 3, 3, 4, 3, 1, 5, 3, 3, 3, 1, 1, 4, 4, 4, 2, 1, 1, 5, 4, 3, 2, 2, 2, 3, 3, 3, 4, 2, 2, 3, 3, 3, 5, 4, 4, 5, 5, 5, 1, 1, 1, 4, 3, 2, 5, 2, 1, 5, 4, 3, 2, 1, 1, 3, 3, 2, 2, 2, 2, 5, 5, 5, 4, 2, 1, 4, 2, 2, 3, 3, 2, 3, 3, 3, 5, 4, 4, 3, 3, 3, 3, 2, 2, 5, 3, 3, 4, 3, 3, 5, 4, 4, 4, 3, 3, 2, 2, 1, 3, 1, 1, 2, 2, 2, 4, 3, 3, 3, 3, 2, 2, 1, 1, 4, 2, 2, 2, 1, 1, 4, 3, 2, 2, 1, 1, 3, 3, 1, 2, 1, 1, 4, 4, 4, 5, 4, 4, 4, 2, 2, 4, 4, 4, 2, 1, 1, 3, 2, 2, 5, 4, 3, 2, 1, 1, 4, 4, 4, 5, 4, 4, 4, 3, 3, 3, 1, 1, 4, 4, 3, 4, 2, 1, 2, 2, 2, 4, 4, 4, 5, 3, 3, 2, 2, 2, 3, 3, 2, 1, 1, 1, 5, 3, 3, 2, 1, 1, 4, 2, 1, 4, 3, 2, 2, 2, 1, 5, 5, 5, 4, 4, 3, 3, 2, 2
 |2, 1, 1, 4, 4, 4, 3, 1, 1, 5, 3, 2, 4, 4, 4, 5, 4, 3, 3, 3, 3, 3, 3, 3, 3, 3, 3, 3, 3, 3, 4, 3, 1, 3, 3, 3, 1, 1, 1, 2, 2, 1, 5, 5, 5, 3, 2, 2, 4, 2, 1, 5, 4, 4, 3, 2, 1, 2, 1, 1, 5, 4, 4, 5, 4, 2, 3, 3, 3, 4, 3, 3, 3, 3, 3, 3, 2, 2, 4, 2, 2, 2, 1, 1, 4, 4, 4, 4, 4, 4, 4, 3, 3, 1, 1, 1, 4, 4, 4, 4, 3, 3, 2, 2, 2, 3, 3, 1, 4, 4, 4, 5, 5, 5, 3, 1, 1, 5, 3, 3, 4, 2, 1, 4, 4, 4, 4, 4, 4, 2, 2, 2, 4, 4, 4, 1, 1, 1, 3, 3, 1, 5, 3, 3, 2, 1, 1, 5, 4, 4, 1, 1, 1, 5, 4, 4, 3, 3, 2, 3, 2, 2, 2, 1, 1, 3, 3, 2, 5, 4, 4, 4, 2, 2, 5, 5, 5, 5, 3, 2, 3, 2, 2, 4, 4, 4, 2, 2, 2, 2, 2, 2, 3, 3, 2, 1, 1, 1, 1, 1, 1, 3, 3, 3, 5, 4, 4, 5, 3, 2, 2, 1, 1, 4, 2, 2, 3, 3, 3, 3, 2, 1, 5, 3, 3, 5, 3, 3, 4, 2, 2, 5, 4, 4, 2, 2, 2, 2, 2, 2, 5, 4, 4, 4, 2, 1, 3, 3, 3, 2, 1, 1, 4, 4, 4, 4, 4, 4, 3, 3, 1, 4, 3, 3, 4, 3, 3, 3, 3, 2, 4, 3, 3, 3, 3, 2, 5, 3, 3, 2, 2, 1, 3, 2, 1, 5, 4, 4, 4, 4, 4, 4, 3, 3, 2, 2, 2, 3, 3, 3
 |5, 5, 5, 1, 1, 1, 3, 3, 3, 8, 8, 8, 8, 7, 7, 3, 3, 3, 5, 5, 5, 9, 6, 4, 8, 6, 6, 4, 4, 4, 3, 2, 2, 5, 4, 4, 8, 7, 6, 10, 7, 6, 1, 1, 1, 9, 6, 2, 10, 6, 3, 6, 5, 5, 7, 7, 6, 5, 4, 1, 7, 5, 4, 8, 7, 4, 7, 7, 7, 3, 2, 2, 6, 5, 5, 10, 9, 9, 6, 4, 3, 4, 3, 3, 4, 3, 3, 8, 7, 7, 5, 3, 2, 8, 8, 7, 2, 1, 1, 9, 7, 4, 10, 7, 5, 6, 5, 5, 6, 5, 5, 4, 3, 2, 2, 2, 2, 8, 5, 2, 3, 3, 2, 4, 3, 1, 2, 2, 2, 8, 8, 6, 8, 7, 7, 9, 5, 4, 9, 7, 6, 9, 9, 9, 10, 9, 9, 5, 4, 4, 7, 5, 4, 8, 7, 6, 10, 9, 8, 4, 3, 3, 8, 6, 5, 6, 4, 3, 5, 3, 1, 5, 3, 2, 4, 2, 1, 7, 4, 2, 1, 1, 1, 8, 7, 3, 9, 5, 2, 3, 3, 3, 10, 9, 7, 6, 5, 3, 9, 8, 5, 7, 6, 4, 9, 9, 9, 8, 7, 6, 7, 4, 3, 7, 5, 4, 8, 7, 7, 4, 2, 2, 6, 6, 6, 8, 6, 5, 6, 5, 4, 1, 1, 1, 8, 7, 4, 5, 5, 5, 7, 3, 3, 9, 3, 1, 8, 7, 5, 4, 3, 3, 9, 6, 5, 6, 5, 4, 6, 4, 4, 8, 8, 7, 9, 9, 9, 10, 7, 3, 8, 8, 6, 9, 6, 6, 8, 5, 1, 6, 6, 3, 5, 5, 4, 2, 1, 1, 8, 6, 4, 5, 4, 4, 3, 3, 2, 9, 7, 4
 |5, 5, 4, 7, 5, 5, 1, 2, 1, 7, 5, 5, 9, 6, 4, 10, 5, 1, 7, 5, 3, 9, 7, 6, 2, 2, 1, 9, 6, 4, 5, 4, 3, 4, 3, 2, 8, 4, 4, 7, 7, 7, 9, 7, 7, 7, 7, 7, 4, 4, 4, 7, 7, 6, 10, 7, 7, 9, 8, 8, 9, 8, 8, 6, 5, 3, 7, 3, 2, 3, 3, 1, 3, 2, 1, 9, 9, 9, 5, 4, 4, 9, 10, 9, 5, 3, 2, 4, 3, 2, 6, 5, 2, 4, 3, 1, 9, 7, 6, 7, 7, 6, 2, 1, 1, 10, 7, 6, 9, 7, 3, 10, 9, 8, 7, 7, 6, 7, 5, 5, 6, 6, 5, 10, 9, 8, 5, 4, 4, 4, 3, 3, 7, 5, 4, 6, 5, 4, 1, 1, 1, 3, 3, 2, 8, 6, 5, 6, 6, 3, 7, 6, 6, 9, 8, 6, 9, 6, 4, 7, 7, 6, 10, 6, 5, 8, 7, 6, 9, 5, 4, 8, 6, 6, 6, 5, 5, 4, 4, 3, 10, 9, 8, 5, 4, 4, 9, 7, 7, 6, 4, 3, 6, 5, 4, 5, 5, 3, 10, 7, 2, 3, 2, 2, 8, 7, 5, 8, 7, 7, 10, 7, 6, 5, 5, 5, 5, 5, 3, 9, 7, 7, 4, 2, 1, 5, 4, 4, 7, 6, 6, 5, 5, 4, 7, 5, 3, 9, 9, 8, 4, 2, 1, 8, 8, 8, 4, 4, 4, 6, 4, 2, 3, 1, 1, 4, 4, 2, 5, 4, 2, 3, 2, 2, 5, 5, 4, 7, 6, 6, 6, 5, 3, 5, 4, 4, 5, 3, 3, 5, 4, 4, 8, 6, 4, 7, 6, 3, 9, 9, 9, 7, 5, 4, 6, 3, 2, 4, 3, 2|];